NAME : STSP_150-2over3
COMMENT : Length = 1545
COMMENT : Found by LKH-3 [Keld Helsgaun]
TYPE : TOUR
DIMENSION : 150
TOUR_SECTION
92
20
109
32
130
25
64
77
64
80
106
41
44
55
94
81
83
19
59
19
29
65
18
85
67
82
43
126
43
121
39
49
30
138
6
134
6
42
2
84
10
119
96
117
135
33
100
35
140
56
140
133
131
57
13
118
150
70
23
128
23
26
103
74
76
46
8
36
120
115
88
142
88
115
53
7
91
78
50
112
50
149
40
12
90
136
90
145
14
145
68
143
71
101
61
1
5
123
69
89
38
86
63
132
37
132
63
102
125
87
147
21
15
4
28
72
79
51
99
73
99
104
27
97
11
95
148
34
107
34
60
124
45
146
66
146
111
144
141
144
111
129
137
129
9
62
58
-1
EOF
